p cnf 36 216
-18 -19 0
-18 -20 0
-18 -21 0
-18 -22 0
-18 -23 0
-18 -24 0
-18 -25 0
-18 -26 0
-18 -27 0
-18 -28 0
-19 -20 0
-19 -21 0
-19 -22 0
-19 -23 0
-19 -24 0
-19 -25 0
-19 -26 0
-19 -27 0
-19 -28 0
-20 -21 0
-20 -22 0
-20 -23 0
-20 -24 0
-20 -25 0
-20 -26 0
-20 -27 0
-20 -28 0
-21 -22 0
-21 -23 0
-21 -24 0
-21 -25 0
-21 -26 0
-21 -27 0
-21 -28 0
-22 -23 0
-22 -24 0
-22 -25 0
-22 -26 0
-22 -27 0
-22 -28 0
-23 -24 0
-23 -25 0
-23 -26 0
-23 -27 0
-23 -28 0
-24 -25 0
-24 -26 0
-24 -27 0
-24 -28 0
-25 -26 0
-25 -27 0
-25 -28 0
-26 -27 0
-26 -28 0
-27 -28 0
-29 -30 0
-29 -31 0
-29 -32 0
-29 -33 0
-29 -34 0
-29 -35 0
-29 -36 0
-30 -31 0
-30 -32 0
-30 -33 0
-30 -34 0
-30 -35 0
-30 -36 0
-31 -32 0
-31 -33 0
-31 -34 0
-31 -35 0
-31 -36 0
-32 -33 0
-32 -34 0
-32 -35 0
-32 -36 0
-33 -34 0
-33 -35 0
-33 -36 0
-34 -35 0
-34 -36 0
-35 -36 0
-19 -18 0
-20 -18 0
-21 -18 0
-22 -18 0
-23 -18 0
-24 -18 0
-25 -18 0
-26 -18 0
-27 -18 0
-28 -18 0
-20 -19 0
-21 -19 0
-22 -19 0
-23 -19 0
-24 -19 0
-25 -19 0
-26 -19 0
-27 -19 0
-28 -19 0
-21 -20 0
-22 -20 0
-23 -20 0
-24 -20 0
-25 -20 0
-26 -20 0
-27 -20 0
-28 -20 0
-22 -21 0
-23 -21 0
-24 -21 0
-25 -21 0
-26 -21 0
-27 -21 0
-28 -21 0
-23 -22 0
-24 -22 0
-25 -22 0
-26 -22 0
-27 -22 0
-28 -22 0
-24 -23 0
-25 -23 0
-26 -23 0
-27 -23 0
-28 -23 0
-25 -24 0
-26 -24 0
-27 -24 0
-28 -24 0
-26 -25 0
-27 -25 0
-28 -25 0
-27 -26 0
-28 -26 0
-28 -27 0
-30 -29 0
-31 -29 0
-32 -29 0
-33 -29 0
-34 -29 0
-35 -29 0
-36 -29 0
-31 -30 0
-32 -30 0
-33 -30 0
-34 -30 0
-35 -30 0
-36 -30 0
-32 -31 0
-33 -31 0
-34 -31 0
-35 -31 0
-36 -31 0
-33 -32 0
-34 -32 0
-35 -32 0
-36 -32 0
-34 -33 0
-35 -33 0
-36 -33 0
-35 -34 0
-36 -34 0
-36 -35 0
-18 1 0
-19 2 0
-20 3 0
-21 4 0
-22 5 0
-23 6 0
-24 7 0
-25 8 0
-26 9 0
-27 10 0
-30 11 0
-31 12 0
-32 13 0
-33 14 0
-34 15 0
-35 16 0
-36 17 0
-1 18 0
-2 19 0
-3 20 0
-4 21 0
-5 22 0
-6 23 0
-7 24 0
-8 25 0
-9 26 0
-10 27 0
-11 30 0
-12 31 0
-13 32 0
-14 33 0
-15 34 0
-16 35 0
-17 36 0
1 2 3 8 9 10 13 0
1 2 6 7 13 17 0
1 5 8 14 16 0
1 5 9 0
2 3 9 10 12 0
2 3 9 10 0
2 12 15 0
3 6 7 17 0
4 5 7 14 15 0
4 11 0
5 16 0
6 7 8 14 0
6 12 13 17 0
8 9 12 13 15 17 0
8 13 14 15 0
10 12 13 17 0
